11
  -1   26   82   65  100  147  134   69  117   42   89  
  66   -1   56   39  109  156  140  135  183  108  155  
  43   57   -1   16   53  100   84  107  155   85  132  
  27   41   62   -1   97  144  131   96  144   69  116  
 109  135  161  174   -1   47   34   54  102   67  114  
 157  171  114  130   60   -1   40  114  162  127  174  
 143  169  132  148   34   31   -1   88  133  101  148  
  95  121  177  160   54  101   88   -1   48   53  100  
  79  105  161  144   91  138  125   37   -1   37   53  
  42   68  124  107   67  114  101   27   75   -1   108      
  83  109  165  148  108  155  142   68   88   41   -1       
 
 


   


